Route #1: 89 60 5 84 45 17 61 85 93 59 99 96 6
Route #2: 58 2 57 15 43 42 14 38 44 86 16 91 100 37 98 92
Route #3: 13 87 97 95 94
Route #4: 40 73 74 22 41 23 67 39 56 75 72 21
Route #5: 53 26 4 25 55 54 24 29 68 80 12 28
Route #6: 50 33 81 51 9 71 65 35 34 78 79 3 77 76
Route #7: 31 88 62 10 63 90 32 66 20 30 70 1 69 27
Route #8: 52 7 82 48 19 11 64 49 36 47 46 8 83 18
Cost 815
